Function: get_partitions took 2.9325485229492188e-05 seconds
Function: map_flows_partitions took 4.5299530029296875e-06 seconds
Building model with:
3 devices, 10 partitions and 1 flows
Using license file /home/anup/gurobi.lic
Academic license - for non-commercial use only
Function: MIP.add_frac_mem_var took 0.0003409385681152344 seconds
Function: MIP.add_coverage_constraints took 0.0002961158752441406 seconds
Function: MIP.add_accuracy_constraints took 0.0005736351013183594 seconds
Function: MIP.add_capacity_constraints took 0.0005621910095214844 seconds
Changed value of parameter TimeLimit to 120.0
   Prev: inf  Min: 0.0  Max: inf  Default: inf
--------------------------------------------------
Starting model update
Model update took: 8.249282836914062e-05 s
--------------------------------------------------
Starting model optimize
Gurobi Optimizer version 9.0.0 build v9.0.0rc2 (linux64)
Optimize a model with 48 rows, 72 columns and 164 nonzeros
Model fingerprint: 0xfd606b83
Model has 4 general constraints
Variable types: 42 continuous, 30 integer (30 binary)
Coefficient statistics:
  Matrix range     [2e-02, 8e+03]
  Objective range  [1e+00, 1e+00]
  Bounds range     [1e+00, 3e+04]
  RHS range        [1e+00, 1e+00]

---------------------------------------------------------------------------
Multi-objectives: starting optimization with 8 objectives ... 
---------------------------------------------------------------------------

Multi-objectives: applying initial presolve ...
---------------------------------------------------------------------------

Presolve removed 27 rows and 28 columns
Presolve time: 0.00s
Presolved: 21 rows and 44 columns
---------------------------------------------------------------------------

Multi-objectives: optimize objective 1 (tot_rows_CPU) ...
---------------------------------------------------------------------------

Presolve removed 13 rows and 27 columns
Presolve time: 0.00s
Presolved: 8 rows, 17 columns, 36 nonzeros
Presolved model has 2 SOS constraint(s)
Variable types: 4 continuous, 13 integer (9 binary)
Found heuristic solution: objective 3.0000000

Root relaxation: cutoff, 2 iterations, 0.00 seconds

    Nodes    |    Current Node    |     Objective Bounds      |     Work
 Expl Unexpl |  Obj  Depth IntInf | Incumbent    BestBd   Gap | It/Node Time

     0     0     cutoff    0         3.00000    3.00000  0.00%     -    0s

Explored 0 nodes (2 simplex iterations) in 0.00 seconds
Thread count was 8 (of 8 available processors)

Solution count 1: 3 

Optimal solution found (tolerance 1.00e-04)
Best objective 3.000000000000e+00, best bound 3.000000000000e+00, gap 0.0000%
---------------------------------------------------------------------------

Multi-objectives: optimize objective 2 (CPU_rows_load) ...
---------------------------------------------------------------------------


Loaded user MIP start with objective 3

Presolve removed 11 rows and 25 columns
Presolve time: 0.00s
Presolved: 11 rows, 19 columns, 42 nonzeros
Presolved model has 2 SOS constraint(s)
Variable types: 4 continuous, 15 integer (9 binary)

Root relaxation: objective 1.500000e+00, 6 iterations, 0.00 seconds

    Nodes    |    Current Node    |     Objective Bounds      |     Work
 Expl Unexpl |  Obj  Depth IntInf | Incumbent    BestBd   Gap | It/Node Time

     0     0    1.50000    0    4    3.00000    1.50000  50.0%     -    0s
H    0     0                       2.0000000    1.50000  25.0%     -    0s

Cutting planes:
  Gomory: 1
  MIR: 2
  Zero half: 1

Explored 1 nodes (6 simplex iterations) in 0.00 seconds
Thread count was 8 (of 8 available processors)

Solution count 2: 2 3 

Optimal solution found (tolerance 1.00e-04)
Best objective 2.000000000000e+00, best bound 2.000000000000e+00, gap 0.0000%
---------------------------------------------------------------------------

Multi-objectives: optimize objective 3 (tot_rows_P4) ...
---------------------------------------------------------------------------


Loaded user MIP start with objective 7

Presolve removed 4 rows and 8 columns
Presolve time: 0.00s
Presolved: 19 rows, 36 columns, 85 nonzeros
Presolved model has 2 SOS constraint(s)
Variable types: 4 continuous, 32 integer (30 binary)

Root relaxation: cutoff, 10 iterations, 0.00 seconds

    Nodes    |    Current Node    |     Objective Bounds      |     Work
 Expl Unexpl |  Obj  Depth IntInf | Incumbent    BestBd   Gap | It/Node Time

     0     0     cutoff    0         7.00000    7.00000  0.00%     -    0s

Explored 0 nodes (10 simplex iterations) in 0.01 seconds
Thread count was 8 (of 8 available processors)

Solution count 1: 7 

Optimal solution found (tolerance 1.00e-04)
Best objective 7.000000000000e+00, best bound 7.000000000000e+00, gap 0.0000%
---------------------------------------------------------------------------

Multi-objectives: optimize objective 4 (P4_rows_load) ...
---------------------------------------------------------------------------


Loaded user MIP start with objective 7

Presolve removed 5 rows and 8 columns
Presolve time: 0.00s
Presolved: 19 rows, 36 columns, 85 nonzeros
Presolved model has 2 SOS constraint(s)
Variable types: 4 continuous, 32 integer (30 binary)

Root relaxation: cutoff, 10 iterations, 0.00 seconds

    Nodes    |    Current Node    |     Objective Bounds      |     Work
 Expl Unexpl |  Obj  Depth IntInf | Incumbent    BestBd   Gap | It/Node Time

     0     0     cutoff    0         7.00000    7.00000  0.00%     -    0s

Explored 0 nodes (10 simplex iterations) in 0.01 seconds
Thread count was 8 (of 8 available processors)

Solution count 1: 7 

Optimal solution found (tolerance 1.00e-04)
Best objective 7.000000000000e+00, best bound 7.000000000000e+00, gap 0.0000%
---------------------------------------------------------------------------

Multi-objectives: optimize objective 5 (tot_mem_CPU) ...
---------------------------------------------------------------------------


Loaded user MIP start with objective 25483.9

Presolve removed 13 rows and 25 columns
Presolve time: 0.00s
Presolved: 12 rows, 19 columns, 44 nonzeros
Presolved model has 2 SOS constraint(s)
Variable types: 4 continuous, 15 integer (9 binary)

Root relaxation: cutoff, 3 iterations, 0.00 seconds

    Nodes    |    Current Node    |     Objective Bounds      |     Work
 Expl Unexpl |  Obj  Depth IntInf | Incumbent    BestBd   Gap | It/Node Time

     0     0     cutoff    0      25483.8984 25483.8984  0.00%     -    0s

Explored 0 nodes (3 simplex iterations) in 0.01 seconds
Thread count was 8 (of 8 available processors)

Solution count 1: 25483.9 

Optimal solution found (tolerance 1.00e-04)
Best objective 2.548389843750e+04, best bound 2.548389843750e+04, gap 0.0000%
---------------------------------------------------------------------------

Multi-objectives: optimize objective 6 (CPU_load_mem) ...
---------------------------------------------------------------------------


Loaded user MIP start with objective 16989.3

Presolve removed 13 rows and 25 columns
Presolve time: 0.00s
Presolved: 13 rows, 19 columns, 51 nonzeros
Presolved model has 2 SOS constraint(s)
Variable types: 4 continuous, 15 integer (9 binary)

Root relaxation: objective 1.274195e+04, 5 iterations, 0.00 seconds

    Nodes    |    Current Node    |     Objective Bounds      |     Work
 Expl Unexpl |  Obj  Depth IntInf | Incumbent    BestBd   Gap | It/Node Time

     0     0 12741.9492    0    4 16989.2656 12741.9492  25.0%     -    0s

Cutting planes:
  Gomory: 1
  MIR: 5
  Zero half: 1

Explored 1 nodes (5 simplex iterations) in 0.01 seconds
Thread count was 8 (of 8 available processors)

Solution count 1: 16989.3 

Optimal solution found (tolerance 1.00e-04)
Best objective 1.698926562500e+04, best bound 1.698926562500e+04, gap 0.0000%
---------------------------------------------------------------------------

Multi-objectives: optimize objective 7 (tot_mem_P4) ...
---------------------------------------------------------------------------


Loaded user MIP start with objective 1.09766

Presolve removed 6 rows and 8 columns
Presolve time: 0.00s
Presolved: 21 rows, 36 columns, 108 nonzeros
Presolved model has 2 SOS constraint(s)
Variable types: 4 continuous, 32 integer (30 binary)

Root relaxation: cutoff, 20 iterations, 0.00 seconds

    Nodes    |    Current Node    |     Objective Bounds      |     Work
 Expl Unexpl |  Obj  Depth IntInf | Incumbent    BestBd   Gap | It/Node Time

     0     0     cutoff    0         1.09766    1.09766  0.00%     -    0s

Explored 0 nodes (20 simplex iterations) in 0.01 seconds
Thread count was 8 (of 8 available processors)

Solution count 1: 1.09766 

Optimal solution found (tolerance 1.00e-04)
Best objective 1.097656250000e+00, best bound 1.097656250000e+00, gap 0.0000%
---------------------------------------------------------------------------

Multi-objectives: optimize objective 8 (P4_load_mem) ...
---------------------------------------------------------------------------


Loaded user MIP start with objective 1.09766

Presolve removed 7 rows and 8 columns
Presolve time: 0.00s
Presolved: 21 rows, 36 columns, 108 nonzeros
Presolved model has 2 SOS constraint(s)
Variable types: 4 continuous, 32 integer (30 binary)

Root relaxation: cutoff, 20 iterations, 0.00 seconds

    Nodes    |    Current Node    |     Objective Bounds      |     Work
 Expl Unexpl |  Obj  Depth IntInf | Incumbent    BestBd   Gap | It/Node Time

     0     0     cutoff    0         1.09766    1.09766  0.00%     -    0s

Explored 0 nodes (20 simplex iterations) in 0.01 seconds
Thread count was 8 (of 8 available processors)

Solution count 1: 1.09766 

Optimal solution found (tolerance 1.00e-04)
Best objective 1.097656250000e+00, best bound 1.097656250000e+00, gap 0.0000%

---------------------------------------------------------------------------
Multi-objectives: solved in 0.01 seconds, solution count 2

Model optimize took: 0.011773109436035156 seconds
--------------------------------------------------

Solution quality statistics for model UnivmonGreedyRows :
  Maximum violation:
    Bound       : 0.00000000e+00
    Constraint  : 0.00000000e+00
    Integrality : 0.00000000e+00

Sketch (0) (cm: eps0: 0.03125, del0: 0.05, min_mem: 0.33984375)
Par: 1, Rows: 1
(-0.000,0)    (1.000,1)    (-0.000,2)    
Total frac: 1.000
Par: 2, Rows: 1
(0.000,2)    (1.000,1)    (0.000,0)    
Total frac: 1.000
Par: 3, Rows: 1
(1.000,1)    (0.000,2)    (0.000,0)    
Total frac: 1.000

Sketch (1) (cm: eps0: 1.25e-06, del0: 0.05, min_mem: 8494.6328125)
Par: 1, Rows: 1
(0.000,1)    (1.000,0)    (-0.000,2)    
Total frac: 1.000
Par: 2, Rows: 1
(1.000,2)    (-0.000,0)    (0.000,1)    
Total frac: 1.000
Par: 3, Rows: 1
(1.000,2)    (0.000,1)    (-0.000,0)    
Total frac: 1.000

Sketch (2) (cm: eps0: 0.625, del0: 0.025, min_mem: 0.01953125)
Par: 1, Rows: 1
(1.000,1)    (0.000,2)    (-0.000,0)    
Total frac: 1.000
Par: 2, Rows: 1
(0.000,0)    (0.000,2)    (1.000,1)    
Total frac: 1.000
Par: 3, Rows: 1
(-0.000,2)    (0.000,0)    (1.000,1)    
Total frac: 1.000
Par: 4, Rows: 1
(0.000,2)    (1.000,1)    (0.000,0)    
Total frac: 1.000

Device (0) CPU_1:
Rows total: 1.0
Mem total: 8494.6328125

Device (1) P4_1:
Rows total: 7.0
Mem total: 1.09765625

Device (2) CPU_2:
Rows total: 2.0
Mem total: 16989.265625
--------------------------------------------------
Changed value of parameter NonConvex to 2
   Prev: -1  Min: -1  Max: 2  Default: -1
Changed value of parameter NonConvex to 2
   Prev: -1  Min: -1  Max: 2  Default: -1

Throughput: 70.00000000000063 Mpps, ns per packet: 14.285714285714159
Resources: 104.88369528452607
Used Cores: 10.000000000000052, Total CPUS: 2, Switch Memory: 1.09765625

Sketch (0) (cm: eps0: 0.03125, del0: 0.05, min_mem: 0.33984375)
Par: 1, Rows: 1
(-0.000,0)    (1.000,1)    (-0.000,2)    
Total frac: 1.000
Par: 2, Rows: 1
(0.000,2)    (1.000,1)    (0.000,0)    
Total frac: 1.000
Par: 3, Rows: 1
(1.000,1)    (0.000,2)    (0.000,0)    
Total frac: 1.000

Sketch (1) (cm: eps0: 1.25e-06, del0: 0.05, min_mem: 8494.6328125)
Par: 1, Rows: 1
(0.000,1)    (1.000,0)    (-0.000,2)    
Total frac: 1.000
Par: 2, Rows: 1
(1.000,2)    (-0.000,0)    (0.000,1)    
Total frac: 1.000
Par: 3, Rows: 1
(1.000,2)    (0.000,1)    (-0.000,0)    
Total frac: 1.000

Sketch (2) (cm: eps0: 0.625, del0: 0.025, min_mem: 0.01953125)
Par: 1, Rows: 1
(1.000,1)    (0.000,2)    (-0.000,0)    
Total frac: 1.000
Par: 2, Rows: 1
(0.000,0)    (0.000,2)    (1.000,1)    
Total frac: 1.000
Par: 3, Rows: 1
(-0.000,2)    (0.000,0)    (1.000,1)    
Total frac: 1.000
Par: 4, Rows: 1
(0.000,2)    (1.000,1)    (0.000,0)    
Total frac: 1.000

Device (0) CPU_1:
cores_sketch: 1.0, cores_dpdk: 3.0
Rows total: 1.0
Mem total: 8494.6328125
Throughput: 70.00000000000063

Device (1) P4_1:
Rows total: 7.0
Mem total: 1.09765625
Throughput: 148.0

Device (2) CPU_2:
cores_sketch: 2.9999999999999987, cores_dpdk: 3.0000000000000533
Rows total: 2.0
Mem total: 16989.265625
Throughput: 70.00000000000063
--------------------------------------------------
Function: MIP.solve took 0.038581132888793945 seconds
Function: solve took 0.03889822959899902 seconds
